c File  p_hat1000-1.clq
c
c Source: P. Soriano and M. Gendreau at  patrick@crt.umontreal.ca
c
c Reference: p-hat graphs are generated with the p-hat generator
c 	      which is a generalization of the classical uniform
c 	      random graph generator.
c 	      Graphs generated with p-hat have wider node degree spread
c 	      and larger cliques than uniform graphs.
c
c NOTE: September 23, 1993 Corrected corrupted file at DIMACS.
c
c
c Generation parameters: 
c 	n =   1000 a =  0.00  b =  0.50  Expected density =  0.25
c	Seed =      22013       Real density =  0.245
c
p edge 1000    122253	
e 3 1
e 5 2
e 7 5
e 9 8
e 11 2
e 11 4
e 11 9
e 11 10
e 12 2
e 12 8
e 13 2
e 13 3
e 13 8
e 13 12
e 15 2
e 15 7
e 15 8
e 16 5
e 16 9
e 17 1
e 17 2
e 17 4
e 17 8
e 18 4
e 18 15
e 19 4
e 19 8
e 19 15
e 20 1
e 20 2
e 20 4
e 20 5
e 20 6
e 20 14
e 20 17
e 21 5
e 21 8
e 21 12
e 21 15
e 21 19
e 22 4
e 22 14
e 22 19
e 22 21
e 23 10
e 23 15
e 23 18
e 23 19
e 23 22
e 24 3
e 24 5
e 24 17
e 24 20
e 24 22
e 24 23
e 25 4
e 25 6
e 25 8
e 25 9
e 25 10
e 25 11
e 25 18
e 25 23
e 25 24
e 26 3
e 26 20
e 26 24
e 27 3
e 27 5
e 27 6
e 27 12
e 27 15
e 27 18
e 27 22
e 27 23
e 27 25
e 28 19
e 28 20
e 28 22
e 28 23
e 29 1
e 29 2
e 29 3
e 29 9
e 29 11
e 29 12
e 29 16
e 29 22
e 29 25
e 29 27
e 29 28
e 30 8
e 30 16
e 30 19
e 30 21
e 30 23
e 30 28
e 31 1
e 31 19
e 31 25
e 31 27
e 32 8
e 32 11
e 32 15
e 32 16
e 32 21
e 32 23
e 33 6
e 33 10
e 33 11
e 33 12
e 33 13
e 33 15
e 33 16
e 33 23
e 33 28
e 34 1
e 34 9
e 34 10
e 34 20
e 34 24
e 34 25
e 34 27
e 34 28
e 34 33
e 35 4
e 35 5
e 35 10
e 35 11
e 35 12
e 35 15
e 35 16
e 35 20
e 35 26
e 35 27
e 35 29
e 35 34
e 36 4
e 36 18
e 36 20
e 36 22
e 36 27
e 36 34
e 37 1
e 37 4
e 37 9
e 37 11
e 37 15
e 37 17
e 37 25
e 37 28
e 37 29
e 37 30
e 37 35
e 38 1
e 38 2
e 38 3
e 38 5
e 38 7
e 38 10
e 38 14
e 38 16
e 38 19
e 38 20
e 38 22
e 38 23
e 38 27
e 38 28
e 38 29
e 38 31
e 38 32
e 38 34
e 38 35
e 38 37
e 39 5
e 39 8
e 39 9
e 39 11
e 39 17
e 39 18
e 39 20
e 39 21
e 39 29
e 39 33
e 39 37
e 40 5
e 40 9
e 40 11
e 40 15
e 40 18
e 40 19
e 40 20
e 40 38
e 40 39
e 41 6
e 41 8
e 41 11
e 41 12
e 41 17
e 41 24
e 41 27
e 41 33
e 42 20
e 42 27
e 42 36
e 43 3
e 43 4
e 43 13
e 43 16
e 43 18
e 43 19
e 43 24
e 43 27
e 43 29
e 43 31
e 43 32
e 43 33
e 43 38
e 43 40
e 43 42
e 44 4
